p tw 55 94
5 24
5 20
10 14
10 54
1 4
1 19
6 16
6 19
6 21
6 25
2 12
2 4
8 25
4 9
4 22
4 18
4 15
42 46
42 55
24 53
37 40
37 44
37 41
52 53
52 54
52 55
14 20
20 23
29 40
29 33
21 51
33 44
33 48
28 42
28 50
28 36
38 48
38 47
9 13
9 24
53 54
53 55
13 17
41 42
41 53
45 52
45 48
45 50
17 24
32 44
32 50
34 50
34 40
34 51
22 52
22 23
44 46
27 37
27 45
12 22
12 18
54 55
7 11
7 12
7 16
7 10
39 42
3 22
3 12
3 13
3 20
3 19
35 49
35 45
35 36
16 24
31 42
31 36
11 55
43 48
40 43
26 31
26 41
26 47
36 44
30 33
51 52
51 53
51 54
51 55
47 54
47 49
15 20
15 24
